mode: 3, sl: 0, sr: 0, revisit: 1, loop: 1
Jetsuite speed factor: 6.16
Solving mode: 3-indexed base
Solving mode: 3-indexed base
Instance name: /home/orlab/rv-fstsp2/rv-fstsp-jetsuite/Niels_instances/output_with_jetsuite//uniform-alpha_3-52-n10-maxradius-20.txt
---------------------------------------------------------------
Current config:
- Number of threads = -1
- Drone endurance = 9999
- SL = 0
- SR = 0
- Allow loop = 1
- Allow revisit = 1
- Allow multi-visit drone = 0
- Use TSP optimal solution as warmstart: = 0
- Use cutting plane method: = 0
- Use CPLEX conflict refiner: = 0
- Debug info: = 0
- Jetsuit enabled: = 0
---------------------------------------------------------------
Version identifier: 22.1.1.0 | 2022-11-28 | 9160aff4d
Tried aggregator 2 times.
MIP Presolve eliminated 1114 rows and 2171 columns.
MIP Presolve modified 1472 coefficients.
Aggregator did 9 substitutions.
Reduced MIP has 1249 rows, 3780 columns, and 30892 nonzeros.
Reduced MIP has 3760 binaries, 0 generals, 0 SOSs, and 0 indicators.
Presolve time = 0.02 sec. (45.36 ticks)
Found incumbent of value 91153.721931 after 0.03 sec. (67.69 ticks)
Probing fixed 54 vars, tightened 18 bounds.
Probing changed sense of 5 constraints.
Probing time = 0.08 sec. (187.35 ticks)
Cover probing fixed 0 vars, tightened 38 bounds.
Tried aggregator 2 times.
Detecting symmetries...
MIP Presolve eliminated 53 rows and 121 columns.
MIP Presolve modified 2687 coefficients.
Aggregator did 12 substitutions.
Reduced MIP has 1181 rows, 3647 columns, and 30190 nonzeros.
Reduced MIP has 3634 binaries, 0 generals, 0 SOSs, and 0 indicators.
Presolve time = 0.02 sec. (50.38 ticks)
Probing time = 0.01 sec. (7.78 ticks)
Cover probing fixed 0 vars, tightened 3 bounds.
Clique table members: 14636.
MIP emphasis: balance optimality and feasibility.
MIP search method: dynamic search.
Parallel mode: deterministic, using up to 20 threads.
Root relaxation solution time = 0.08 sec. (194.48 ticks)

        Nodes                                         Cuts/
   Node  Left     Objective  IInf  Best Integer    Best Bound    ItCnt     Gap

*     0+    0                        91153.7219       19.5514            99.98%
      0     0       39.9864   139    91153.7219       39.9864       30   99.96%
*     0+    0                          386.5529       39.9864            89.66%
*     0+    0                          252.3343       39.9864            84.15%
      0     0       76.8850   101      252.3343      Cuts: 16     1317   69.53%
*     0+    0                          251.6049       76.8850            69.44%
*     0+    0                          174.2618       76.8850            55.88%
      0     0       76.8850   100      174.2618      Cuts: 39     1690   55.88%
      0     0       76.8850    94      174.2618       Cuts: 3     1892   55.88%
      0     0       76.8850   110      174.2618      Cuts: 17     2236   55.88%
*     0+    0                          154.3524       76.8850            50.19%
*     0+    0                          150.1057       76.8922            48.77%
      0     0  -1.00000e+75     0      150.1057       76.8922     2236   48.77%
Detecting symmetries...
      0     2       76.8850    99      150.1057       76.8922     2236   48.77%
Elapsed time = 1.17 sec. (1595.79 ticks, tree = 0.02 MB, solutions = 7)
*     1+    1                          149.3797       76.8922            48.53%
*     2+    1                          145.6754       76.8922            47.22%
*    20+    4                          143.7200       76.8922            46.50%
*   115+   15                          143.2439       76.8922            46.32%
    195    45      142.2370    22      143.2439       77.1998    15743   46.11%
   1298    70      139.4553    63      143.2439       77.2071    52750   46.10%
   2826    26        cutoff            143.2439       77.2071   105418   46.10%
   3515   129      122.9701    84      143.2439       77.2144   165000   46.10%
   4224   424       94.4188    71      143.2439       77.2144   207333   46.10%
   5399  1008      120.4995    89      143.2439       77.2144   276746   46.10%
   5870  1282      136.0747    59      143.2439       77.2144   321387   46.10%
   6641  1573      103.7820    98      143.2439       77.2144   390783   46.10%
   6996  1890      102.2558   105      143.2439       79.5994   450903   44.43%

Performing restart 1

Repeating presolve.
Tried aggregator 2 times.
MIP Presolve eliminated 92 rows and 168 columns.
MIP Presolve modified 12557 coefficients.
Aggregator did 3 substitutions.
Reduced MIP has 1085 rows, 3476 columns, and 22802 nonzeros.
Reduced MIP has 3465 binaries, 0 generals, 0 SOSs, and 0 indicators.
Presolve time = 0.01 sec. (30.76 ticks)
Tried aggregator 2 times.
MIP Presolve eliminated 20 rows and 77 columns.
MIP Presolve modified 123 coefficients.
Aggregator did 1 substitutions.
Reduced MIP has 1064 rows, 3398 columns, and 22116 nonzeros.
Reduced MIP has 3387 binaries, 0 generals, 0 SOSs, and 0 indicators.
Presolve time = 0.01 sec. (21.58 ticks)
Tried aggregator 2 times.
MIP Presolve eliminated 47 rows and 317 columns.
MIP Presolve modified 262 coefficients.
Aggregator did 3 substitutions.
Reduced MIP has 1014 rows, 3078 columns, and 20260 nonzeros.
Reduced MIP has 3067 binaries, 0 generals, 0 SOSs, and 0 indicators.
Presolve time = 0.01 sec. (22.63 ticks)
Tried aggregator 2 times.
MIP Presolve eliminated 53 rows and 228 columns.
MIP Presolve modified 355 coefficients.
Aggregator did 2 substitutions.
Reduced MIP has 959 rows, 2848 columns, and 18481 nonzeros.
Reduced MIP has 2837 binaries, 0 generals, 0 SOSs, and 0 indicators.
Presolve time = 0.02 sec. (29.38 ticks)
Tried aggregator 1 time.
Reduced MIP has 959 rows, 2848 columns, and 18481 nonzeros.
Reduced MIP has 2837 binaries, 0 generals, 0 SOSs, and 0 indicators.
Presolve time = 0.01 sec. (10.82 ticks)
Represolve time = 0.34 sec. (633.24 ticks)
*  9207+    0                          143.1108       93.1168            34.93%
   9207     0       77.4310   206      143.1108      Cuts: 11   642451   34.93%
   9207     0       77.5451   192      143.1108      Cuts: 18   644281   34.93%
   9207     0       77.5453   217      143.1108      Cuts: 49   644840   34.93%
*  9207+    0                          140.9715       93.1168            33.95%
   9207     0       77.5453   179      140.9715      Cuts: 10   645425   33.95%
   9207     0       77.5453   178      140.9715      Cuts: 43   645737   33.95%
   9207     0       77.5455   175      140.9715      Cuts: 10   646084   33.95%
   9207     2       77.5455   148      140.9715       98.3341   646084   30.25%
Elapsed time = 6.48 sec. (7893.57 ticks, tree = 0.02 MB, solutions = 16)
   9587    69      139.3070    31      140.9715       98.3341   661619   30.25%
  12490    44      128.6377    86      140.9715       98.3341   736775   30.25%
  14558    17      117.3315    95      140.9715       98.3341   793902   30.25%
  16359    31      115.6063   136      140.9715      110.6657   888494   21.50%
  17102     9      130.5961   106      140.9715      115.4323   952025   18.12%

Clique cuts applied:  5
Cover cuts applied:  9
Flow cuts applied:  1
Mixed integer rounding cuts applied:  19
Zero-half cuts applied:  3
Gomory fractional cuts applied:  4

Root node processing (before b&c):
  Real time             =    1.08 sec. (1573.57 ticks)
Parallel b&c, 20 threads:
  Real time             =   10.15 sec. (11201.60 ticks)
  Sync time (average)   =    3.73 sec.
  Wait time (average)   =    0.01 sec.
                          ------------
Total (root+branch&cut) =   11.23 sec. (12775.17 ticks)
Solve time: 11.236
Objective Value: 140.972

Truck Schedule: 
Stage 1: Truck arrived node 0 at 0
	Truck departed from node 0 to node 2 at 0
Stage 2: Truck arrived node 2 at 41.3232
	Truck departed from node 2 to node 2 at 45.0677
Stage 3: Truck arrived node 2 at 45.0677
	Truck departed from node 2 to node 2 at 54.2967
Stage 4: Truck arrived node 2 at 54.2967
	Truck departed from node 2 to node 2 at 72.5826
Stage 5: Truck arrived node 2 at 72.5826
	Truck departed from node 2 to node 10 at 97.3943
Stage 6: Truck arrived node 10 at 138.717

Truck arc:
Stage 1: 0 -> 2
Stage 2: 2 -> 2
Stage 3: 2 -> 2
Stage 4: 2 -> 2
Stage 5: 2 -> 10

Drone Schedule: 
Stage 1 to 2: Drone departed from node 0 visited customer 3 and arrived to node 2
	 Departed at: 0
	 Visited at: 29.4152
	 Arrived at: 45.0677
Added drone operation: position 0 (node 0) -> customer 3 -> position 1 (node 2)
Stage 2 to 3: Drone departed from node 2 visited customer 5 and arrived to node 2
	 Departed at: 45.0677
	 Visited at: 49.452
	 Arrived at: 53.8363
Added drone operation: position 1 (node 2) -> customer 5 -> position 2 (node 2)
Stage 3 to 4: Drone departed from node 2 visited customer 4 and arrived to node 2
	 Departed at: 54.2967
	 Visited at: 60.6213
	 Arrived at: 66.9458
Added drone operation: position 2 (node 2) -> customer 4 -> position 3 (node 2)
Stage 4 to 5: Drone departed from node 2 visited customer 1 and arrived to node 2
	 Departed at: 72.5826
	 Visited at: 84.254
	 Arrived at: 95.9255
Added drone operation: position 3 (node 2) -> customer 1 -> position 4 (node 2)
Stage 5 to 6: Drone departed from node 2 visited customer 8 and arrived to node 10
	 Departed at: 97.3943
	 Visited at: 112.301
	 Arrived at: 140.972
Added drone operation: position 4 (node 2) -> customer 8 -> position 5 (node 10)

Jetsuite Schedule: 
Stage 2: Jetsuite launched from node 2 served customer 7 and recovered at node 2
Stage 3: Jetsuite launched from node 2 served customer 9 and recovered at node 2
Stage 4: Jetsuite launched from node 2 served customer 6 and recovered at node 2
x[0][2][1] = 1
x[2][2][2] = 1
x[2][2][3] = 1
x[2][2][4] = 1
x[2][10][5] = 1

Drone Variables (V[i][h][k]):
Y[0][3][1] = 1
Y[2][1][4] = 1
Y[2][4][3] = 1
Y[2][5][2] = 1
Y[2][8][5] = 1

Jetsuite Variables (U[i][h][k]):
U[2][6][4] = 1
U[2][7][2] = 1
U[2][9][3] = 1

Checking the feasibility of the solution...
Time schedule is not given, recalculating...
Current objective: 140.972
Recalculated objective: 133.406
